(set-logic ALL)
(declare-fun var0 () String)
(assert (str.in_re var0 (re.++ (re.union (re.* (str.to_re "000")) (re.* (str.to_re "1"))) (re.++ (re.* (re.union (str.to_re "22") (str.to_re "333"))) (re.++ (re.* (re.* (str.to_re "444"))) (re.++ (re.union (re.union (str.to_re "55") (str.to_re "66")) (re.union (str.to_re "7") (str.to_re "8"))) (re.++ (re.union (re.+ (str.to_re "99")) (re.+ (str.to_re "aaa"))) (re.++ (re.+ (re.union (str.to_re "b") (str.to_re "cc"))) (re.++ (re.union (re.union (str.to_re "ddd") (str.to_re "e")) (re.union (str.to_re "f") (str.to_re "gg"))) (re.++ (re.union (re.union (str.to_re "hhh") (str.to_re "i")) (re.union (str.to_re "jj") (str.to_re "kkk"))) (re.++ (re.+ (re.union (str.to_re "ll") (str.to_re "m"))) (re.++ (re.union (re.union (str.to_re "n") (str.to_re "ooo")) (re.union (str.to_re "ppp") (str.to_re "qqq"))) (re.++ (re.union (re.* (str.to_re "rr")) (re.* (str.to_re "ss"))) (re.++ (re.+ (re.+ (str.to_re "ttt"))) (re.++ (re.* (re.+ (str.to_re "u"))) (re.++ (re.+ (re.+ (str.to_re "vv"))) (re.++ (re.+ (re.union (str.to_re "w") (str.to_re "xxx"))) (re.++ (re.union (re.* (str.to_re "y")) (re.* (str.to_re "zzz"))) (re.++ (re.union (re.* (str.to_re "AAA")) (re.* (str.to_re "B"))) (re.++ (re.+ (re.+ (str.to_re "CC"))) (re.++ (re.union (re.+ (str.to_re "DD")) (re.+ (str.to_re "EE"))) (re.++ (re.+ (re.union (str.to_re "FFF") (str.to_re "GGG"))) (re.++ (re.union (re.+ (str.to_re "H")) (re.+ (str.to_re "I"))) (re.++ (re.union (re.* (str.to_re "J")) (re.* (str.to_re "K"))) (re.++ (re.union (re.+ (str.to_re "L")) (re.+ (str.to_re "MM"))) (re.++ (re.* (re.* (str.to_re "N"))) (re.++ (re.+ (re.union (str.to_re "OOO") (str.to_re "PP"))) (re.++ (re.* (re.union (str.to_re "Q") (str.to_re "RR"))) (re.++ (re.+ (re.+ (str.to_re "SS"))) (re.++ (re.* (re.union (str.to_re "TTT") (str.to_re "U"))) (re.++ (re.+ (re.+ (str.to_re "V"))) (re.++ (re.union (re.+ (str.to_re "W")) (re.+ (str.to_re "X"))) (re.++ (re.union (re.* (str.to_re "YY")) (re.* (str.to_re "ZZZ"))) (re.++ (re.+ (re.+ (str.to_re "!!!"))) (re.++ (re.* (re.* (str.to_re """"""""))) (re.++ (re.* (re.union (str.to_re "##") (str.to_re "$$"))) (re.++ (re.+ (re.* (str.to_re "%%%"))) (re.++ (re.+ (re.* (str.to_re "&&"))) (re.++ (re.union (re.+ (str.to_re "'")) (re.+ (str.to_re "("))) (re.++ (re.* (re.+ (str.to_re ")))"))) (re.++ (re.union (re.+ (str.to_re "*")) (re.+ (str.to_re "++"))) (re.++ (re.+ (re.* (str.to_re ",,,"))) (re.++ (re.+ (re.union (str.to_re "---") (str.to_re ".."))) (re.++ (re.union (re.+ (str.to_re "/")) (re.+ (str.to_re ":::"))) (re.++ (re.union (re.+ (str.to_re ";;;")) (re.+ (str.to_re "<<<"))) (re.++ (re.* (re.+ (str.to_re "="))) (re.++ (re.+ (re.* (str.to_re ">"))) (re.++ (re.union (re.+ (str.to_re "???")) (re.+ (str.to_re "@@"))) (re.++ (re.* (re.union (str.to_re "[[[") (str.to_re "\\\\\\"))) (re.++ (re.+ (re.union (str.to_re "]]") (str.to_re "^"))) (re.union (re.* (str.to_re "_")) (re.* (str.to_re "```")))))))))))))))))))))))))))))))))))))))))))))))))))))
(check-sat)